80 254672
44 31 26 68 35 72 55 16 24 13 28 27 5 1 71 48 38 23 22 56 79 50 3 59 2 21 4 58 74 61 42 19 41 45 15 29 32 36 12 62 70 25 30 60 46 66 9 76 20 43 14 11 18 75 80 53 63 37 47 10 52 65 78 64 54 57 49 69 51 8 40 67 73 7 39 17 77 33 6 34 
